
Gurobi 10.0.1 (linux64) logging started Sun Nov 26 15:52:05 2023

Set parameter LogFile to value "ArtificialInstance/ExperimentV2/S2T4K2/BaDo/gurobi91.txt"
Gurobi Optimizer version 10.0.1 build v10.0.1rc0 (linux64)

CPU model: AMD EPYC 7H12 64-Core Processor, instruction set [SSE2|AVX|AVX2]
Thread count: 128 physical cores, 128 logical processors, using up to 32 threads

Academic license 656792 - for non-commercial use only - registered to b.___@student.vu.nl
Optimize a model with 630 rows, 1040 columns and 3360 nonzeros
Model fingerprint: 0x1cdf8478
Variable types: 0 continuous, 1040 integer (1040 binary)
Coefficient statistics:
  Matrix range     [1e+00, 1e+00]
  Objective range  [2e+00, 2e+01]
  Bounds range     [1e+00, 1e+00]
  RHS range        [1e+00, 1e+00]
Found heuristic solution: objective 580.8374207
Presolve time: 0.01s
Presolved: 630 rows, 1040 columns, 3360 nonzeros
Variable types: 0 continuous, 1040 integer (1040 binary)

Root relaxation: objective 3.607263e+01, 505 iterations, 0.01 seconds (0.00 work units)

    Nodes    |    Current Node    |     Objective Bounds      |     Work
 Expl Unexpl |  Obj  Depth IntInf | Incumbent    BestBd   Gap | It/Node Time

     0     0   36.07263    0  112  580.83742   36.07263  93.8%     -    0s
H    0     0                     108.0655788   36.07263  66.6%     -    0s
H    0     0                      87.2872218   36.07263  58.7%     -    0s
H    0     0                      55.3664377   36.07263  34.8%     -    0s
     0     0   40.06325    0  146   55.36644   40.06325  27.6%     -    0s
H    0     0                      52.6973752   40.06325  24.0%     -    0s
H    0     0                      51.5571454   41.52457  19.5%     -    0s
     0     0   42.82693    0   83   51.55715   42.82693  16.9%     -    0s
     0     0   44.84791    0  214   51.55715   44.84791  13.0%     -    0s
H    0     0                      49.0701896   44.84791  8.60%     -    0s
     0     0   45.12885    0  213   49.07019   45.12885  8.03%     -    0s
     0     0   46.55452    0  166   49.07019   46.55452  5.13%     -    0s
     0     0   46.55452    0  112   49.07019   46.55452  5.13%     -    0s
     0     0   46.55452    0  142   49.07019   46.55452  5.13%     -    0s
H    0     0                      47.6999843   46.55452  2.40%     -    0s
     0     0   46.55452    0  166   47.69998   46.55452  2.40%     -    0s
     0     0   46.55452    0  165   47.69998   46.55452  2.40%     -    0s
     0     0   46.55452    0  167   47.69998   46.55452  2.40%     -    0s
     0     0   46.55452    0  154   47.69998   46.55452  2.40%     -    0s
     0     0   46.55452    0   70   47.69998   46.55452  2.40%     -    0s
     0     0   46.75625    0   58   47.69998   46.75625  1.98%     -    0s
     0     0     cutoff    0        47.69998   47.69998  0.00%     -    0s

Cutting planes:
  Gomory: 2
  Zero half: 34

Explored 1 nodes (2711 simplex iterations) in 0.48 seconds (0.11 work units)
Thread count was 32 (of 128 available processors)

Solution count 8: 47.7 49.0702 51.5571 ... 580.837

Optimal solution found (tolerance 1.00e-04)
Best objective 4.769998428164e+01, best bound 4.769998428164e+01, gap 0.0000%
